# PBE1PBE/LanL2DZ opt TD=(nstates=10,50-50) pop=(full,Hirshfeld) Int=UltraFine SCF=XQC

Title RhBr

0 1
Rh      2.331076    7.073941    6.739121
Br      8.869486    8.470565    9.940651
O       0.805351    8.220885    6.091134
O       1.024494    4.684978    5.500120
N       3.258516    8.746214    7.560015
O       4.245302    5.086379    7.836479
C       1.433604   10.329794    7.067415
C       2.696194    9.919281    7.609852
H       3.186344   10.592474    8.067041
C       0.579394    9.485836    6.316188
C      -0.603956   10.051411    5.788440
H      -1.180069    9.513218    5.258992
C       5.592682    8.033019    7.441980
H       5.413755    7.636539    6.597625
C       7.122973    8.562752    9.207785
C       6.873660    7.975611    7.979171
H       7.572576    7.537472    7.506590
C       4.837457    9.251344    9.378804
H       4.141244    9.686612    9.855928
C       4.571917    8.671189    8.141797
C       1.488369    5.587256    5.966804
C       1.063936   11.680401    7.286698
H       1.639784   12.244411    7.789276
C       6.118111    9.197429    9.920192
H       6.300954    9.589793   10.765596
C      -0.937921   11.360252    6.025559
H      -1.745206   11.709226    5.666491
C       3.556238    5.882041    7.411553
C      -0.107468   12.189783    6.788328
H      -0.351478   13.092030    6.958173

